# 1.2.1.18_group0_PF00171_30-85~1.2.1.3_group0_PF00171_30-85.sdpA
# All alignment positions within 5\AA of a ligand/cat site passing the sdpA filter.  Column indices start with 0.
264
283
307
308
310
487
544
